p tw 37 43
1 2
2 13
3 4
3 11
4 5
5 6
5 16
6 7
7 8
7 13
8 9
9 10
10 13
11 12
12 14
13 24
14 15
15 13
16 17
17 18
18 19
19 20
19 13
20 21
21 22
22 13
23 25
24 32
25 26
25 30
26 27
27 28
28 29
29 30
30 31
32 33
33 34
34 35
35 36
35 23
36 37
36 23
37 3
